c ren 1 -> 1
c ren 2 -> 2
c ren 3 -> 3
c ren 5 -> 4
c ren 7 -> 5
c ren 8 -> 6
c ren 9 -> 7
c ren 11 -> 8
c ren 14 -> 9
c ren 15 -> 10
c ren 16 -> 11
c ren 21 -> 12
c ren 28 -> 13
c ren 31 -> 14
c ren 32 -> 15
c ren 33 -> 16
c ren 36 -> 17
c ren 37 -> 18
c ren 40 -> 19
c ren 41 -> 20
c ren 42 -> 21
c ren 45 -> 22
c ren 46 -> 23
c ren 47 -> 24
c ren 50 -> 25
c ren 51 -> 26
c ren 54 -> 27
c ren 55 -> 28
c ren 57 -> 29
c ren 60 -> 30
c ren 61 -> 31
c ren 76 -> 32
p cnf 32 106
a 1 2 3 5 6 7 9 10 11 12 13 15 17 19 22 25 27 30 0
d 20 6 7 0
d 23 17 19 0
d 28 22 25 0
d 31 10 11 0
d 32 27 30 0
e 4 8 14 16 18 21 24 26 29 0
-1 2 3 -4 0
1 -2 -3 4 0
1 2 -3 -4 0
-1 -2 3 4 0
1 -2 3 -4 0
-1 -2 -3 -4 0
1 2 3 4 0
-1 2 -3 4 0
-5 6 7 -8 0
5 -6 -7 8 0
5 6 -7 -8 0
-5 -6 7 8 0
5 -6 7 -8 0
-5 -6 -7 -8 0
5 6 7 8 0
-5 6 -7 8 0
8 14 0
-2 -3 -4 -8 -9 -10 11 -12 -13 -14 0
-1 3 -4 -5 -8 9 -10 -11 -12 13 -14 0
-1 2 -4 -5 -8 -9 10 -11 -12 13 -14 0
-10 11 -15 16 0
1 3 -4 -8 -9 -10 11 12 13 -14 0
-1 3 -4 -5 -8 -9 -10 11 -12 13 -14 0
2 -4 5 -8 -9 -10 11 12 13 -14 0
1 2 -4 -8 -9 -10 11 12 13 -14 0
3 -4 5 -8 -9 -10 11 12 13 -14 0
2 25 26 0
3 25 26 0
1 3 -4 -8 -9 10 -11 12 13 -14 0
-2 -3 -4 -8 9 -10 -11 -12 -13 -14 0
10 -11 -15 16 0
2 -4 5 -8 -9 10 -11 12 13 -14 0
1 3 -4 -8 9 -10 -11 12 13 -14 0
-2 -3 -25 26 0
-1 2 -4 -5 -8 9 -10 -11 -12 13 -14 0
-10 -11 15 16 0
1 2 -4 -8 9 -10 -11 12 13 -14 0
-1 3 -4 -5 -8 -9 10 -11 -12 13 -14 0
1 2 -4 -8 -9 10 -11 12 13 -14 0
-1 2 -4 -5 -8 -9 -10 11 -12 13 -14 0
3 -4 5 -8 9 -10 -11 12 13 -14 0
11 12 14 -16 -18 -21 -24 -26 -29 -30 -31 -32 0
-2 -3 -4 -8 9 10 11 -12 -13 -14 0
-13 -17 18 0
13 17 18 0
10 11 15 16 0
-10 -11 14 -16 -18 -21 -24 -26 -29 -30 -31 32 0
-19 -20 21 0
19 20 21 0
-1 3 -4 -5 -8 9 10 11 -12 13 -14 0
-9 -12 14 -16 -18 -21 -24 -26 -29 -30 -31 32 0
1 2 -4 -8 9 10 11 12 13 -14 0
-22 -23 24 0
22 23 24 0
2 -4 5 -8 9 10 11 12 13 -14 0
9 10 14 -16 -18 -21 -24 -26 -29 -30 -31 -32 0
3 -4 5 -8 9 10 11 12 13 -14 0
3 -4 5 -8 -9 10 -11 12 13 -14 0
-2 -3 -4 -8 -9 10 -11 -12 -13 -14 0
9 11 14 -16 -18 -21 -24 -26 -29 -30 -31 -32 0
-15 -27 -28 29 0
27 28 29 0
15 27 29 0
9 -12 14 15 -16 -18 -21 -24 -26 28 -29 -30 -31 0
10 12 14 -16 -18 -21 -24 -26 -29 -30 -31 -32 0
9 12 14 -15 -16 -18 -21 -24 -26 28 -29 30 31 0
-9 -12 14 -15 -16 -18 -21 -24 -26 28 -29 -30 -31 0
9 12 14 15 -16 -18 -21 -24 -26 -28 -29 30 31 0
-9 -12 14 15 -16 -18 -21 -24 -26 -28 -29 30 31 0
-9 12 14 -15 -16 -18 -21 -24 -26 -28 -29 30 31 0
-1 -5 -13 14 -16 -18 20 -21 -24 -26 -29 30 31 0
-9 12 14 15 -16 -18 -21 -24 -26 28 -29 30 31 0
9 -12 14 -15 -16 -18 -21 -24 -26 -28 -29 30 31 0
-9 -12 14 -15 -16 -18 -21 -24 -26 28 -29 30 31 0
9 11 14 -16 -18 -21 -24 -26 -29 30 31 -32 0
9 10 14 -16 -18 -21 -24 -26 -29 30 31 -32 0
11 12 14 -16 -18 -21 -24 -26 -29 30 31 -32 0
-1 -5 13 14 -16 -18 -20 -21 -24 -26 -29 30 31 0
-9 -12 14 -16 -18 -21 -24 -26 -29 30 31 32 0
-10 -11 14 -16 -18 -21 -24 -26 -29 30 31 32 0
10 12 14 -16 -18 -21 -24 -26 -29 30 31 -32 0
1 5 13 14 -16 -18 -20 -21 -24 -26 -29 30 31 0
1 5 -13 14 -16 -18 20 -21 -24 -26 -29 30 31 0
1 -5 -13 14 -16 -18 -20 -21 -24 -26 -29 30 31 0
-1 5 -13 14 -16 -18 -20 -21 -24 -26 -29 30 31 0
9 -12 14 15 -16 -18 -21 -24 -26 28 -29 30 31 0
1 -5 13 14 -16 -18 20 -21 -24 -26 -29 -30 -31 0
1 -5 13 14 -16 -18 20 -21 -24 -26 -29 30 31 0
-1 5 -13 14 -16 -18 -20 -21 -24 -26 -29 -30 -31 0
1 5 13 14 -16 -18 -20 -21 -24 -26 -29 -30 -31 0
-1 -5 -13 14 -16 -18 20 -21 -24 -26 -29 -30 -31 0
-1 -5 13 14 -16 -18 -20 -21 -24 -26 -29 -30 -31 0
1 5 -13 14 -16 -18 20 -21 -24 -26 -29 -30 -31 0
1 -5 -13 14 -16 -18 -20 -21 -24 -26 -29 -30 -31 0
-1 2 -4 -5 -8 9 10 11 -12 13 -14 0
2 -4 5 -8 9 -10 -11 12 13 -14 0
4 14 0
1 3 -4 -8 9 10 11 12 13 -14 0
-1 5 13 14 -16 -18 20 -21 -24 -26 -29 -30 -31 0
-1 5 13 14 -16 -18 20 -21 -24 -26 -29 30 31 0
9 -12 14 -15 -16 -18 -21 -24 -26 -28 -29 -30 -31 0
9 12 14 15 -16 -18 -21 -24 -26 -28 -29 -30 -31 0
9 12 14 -15 -16 -18 -21 -24 -26 28 -29 -30 -31 0
-9 -12 14 15 -16 -18 -21 -24 -26 -28 -29 -30 -31 0
-9 12 14 15 -16 -18 -21 -24 -26 28 -29 -30 -31 0
-9 12 14 -15 -16 -18 -21 -24 -26 -28 -29 -30 -31 0
